p cnf 14 64
-7 -9 -14 0
2 -3 -6 0
-1 -5 -12 0
5 8 -14 0
1 -5 14 0
-1 10 14 0
3 -8 -14 0
1 5 7 0
-1 4 -7 0
-7 -9 14 0
6 8 12 0
1 -8 -11 0
4 8 10 0
2 -7 10 0
5 6 7 0
5 -12 -14 0
6 9 12 0
-1 -7 -8 0
-2 7 -9 0
2 4 -11 0
-3 -12 14 0
6 13 14 0
4 5 -14 0
2 6 9 0
3 -6 14 0
8 9 11 0
-7 8 -9 0
3 6 -12 0
5 6 -9 0
5 10 14 0
2 3 -13 0
3 -7 -8 0
-6 13 -14 0
-1 7 10 0
-8 9 -11 0
6 7 -11 0
6 13 -14 0
-2 4 -12 0
-2 8 -11 0
6 -7 -9 0
-8 13 14 0
4 -13 14 0
4 -10 12 0
1 2 -6 0
-1 4 -12 0
-1 -2 -5 0
2 3 5 0
1 -4 10 0
1 -5 -9 0
-2 3 -8 0
-7 -8 -14 0
4 -5 -8 0
1 -6 -9 0
10 -11 -13 0
7 -8 -14 0
2 -4 6 0
-5 11 -12 0
1 4 -13 0
-1 -3 14 0
4 -5 -12 0
-8 9 13 0
1 3 -5 0
4 -8 10 0
4 -5 12 0
